robust/generate/spp_dkp_Lefebvre_et_al_2026/src/shortest_path_3_6.kp
48
67

[0.2 9.96 3.18 3.34 8.84 3.62]

[51 25 23 10 33 67]
